NAME : XML100_3361_07
DIMENSION : 101
NB_CLUSTERS : 5
CLUSTERING_ALG : KMeans
CLUSTERING_PARAMS : k(4)
CLUSTERS
1 0
2 3 5 8 11 15 16 23 25 27 30 31 33 34 37 38 39 44 45 46 47 63 65 66 69 71 72 75 77 82 83 86 87 93 94 99
3 4 9 10 12 13 14 18 19 22 26 28 29 35 36 40 42 48 50 52 53 55 58 59 64 67 70 74 76 78 79 80 81 85 88 90 91 92 96 97 98 100
4 7 21 41 54 61 62 73 95
5 1 2 6 17 20 24 32 43 49 51 56 57 60 68 84 89
EOF